NAME: rat99.pc.opt.tour
COMMENT: Found by pc_tsp [Arno Formella]
COMMENT: Length 1219.24 (unrounded)
TYPE: TOUR
DIMENSION: 99
TOUR_SECTION
62
61
60
49
50
51
52
53
54
45
44
36
35
27
26
25
24
23
15
16
17
18
9
8
7
6
5
14
4
3
2
1
10
11
12
13
22
21
20
19
28
37
29
30
31
32
33
34
43
42
41
40
39
48
38
47
46
55
64
65
56
57
58
59
68
67
66
75
74
73
82
83
91
92
93
94
95
96
97
98
99
90
89
79
88
87
86
85
84
76
77
78
69
70
71
80
81
72
63
-1
EOF
